\ Model matlab
\ LP format - for model browsing. Use MPS format to capture full model detail.
Minimize
  C0 + C1 + C2 + C3 + C4 + C5 + C6 + C7 + C8 + C9 + C10 + C11 + C12 + C13
   + C14 + C15 + C16 + C17 + C18 + C19 + C20 + C21 + C22 + C23 + C24 + C25
   + C26 + C27 + C28 + C29 + C30 + C31 + C32 + C33 + C34 + C35 + C36 + C37
   + C38 + C39 + C40 + C41 + C42 + C43 + C44 + C45 + C46 + C47 + C48
   + 23 C49 + 60 C50 + 30 C51 + 110 C52 + 34 C53 + C54 + 23 C55 + 60 C56
   + 30 C57 + 110 C58 + 34 C59 + C60 + 23 C61 + 60 C62 + 30 C63 + 110 C64
   + 34 C65 + C66 + 23 C67 + 60 C68 + 30 C69 + 110 C70 + 34 C71 + C72
   + 23 C73 + 60 C74 + 30 C75 + 110 C76 + 34 C77 + C78 + 23 C79 + 60 C80
   + 30 C81 + 110 C82 + 34 C83 + C84 + 23 C85 + 60 C86 + 30 C87 + 110 C88
   + 34 C89 + C90 + 23 C91 + 60 C92 + 30 C93 + 110 C94 + 34 C95 + C96
   + 23 C97 + 60 C98 + 30 C99 + 110 C100 + 34 C101 + C102 + 23 C103
   + 60 C104 + 30 C105 + 110 C106 + 34 C107 + C108 + 23 C109 + 60 C110
   + 30 C111 + 110 C112 + 34 C113 + C114 + 23 C115 + 60 C116 + 30 C117
   + 110 C118 + 34 C119 + C120 + 23 C121 + 60 C122 + 30 C123 + 110 C124
   + 34 C125 + C126 + 23 C127 + 60 C128 + 30 C129 + 110 C130 + 34 C131
   + C132 + 23 C133 + 60 C134 + 30 C135 + 110 C136 + 34 C137 + C138
   + 23 C139 + 60 C140 + 30 C141 + 110 C142 + 34 C143 + C144 + 23 C145
   + 60 C146 + 30 C147 + 110 C148 + 34 C149 + C150 + 23 C151 + 60 C152
   + 30 C153 + 110 C154 + 34 C155 + C156 + 23 C157 + 60 C158 + 30 C159
   + 110 C160 + 34 C161 + C162 + 23 C163 + 60 C164 + 30 C165 + 110 C166
   + 34 C167 + C168 + 23 C169 + 60 C170 + 30 C171 + 110 C172 + 34 C173
   + C174 + 23 C175 + 60 C176 + 30 C177 + 110 C178 + 34 C179 + C180
   + 23 C181 + 60 C182 + 30 C183 + 110 C184 + 34 C185 + C186 + 23 C187
   + 60 C188 + 30 C189 + 110 C190 + 34 C191 + C192 + 23 C193 + 60 C194
   + 30 C195 + 110 C196 + 32 C197 + C198 + 23 C199 + 60 C200 + 30 C201
   + 110 C202 + 32 C203 + C204 + 23 C205 + 60 C206 + 30 C207 + 110 C208
   + 32 C209 + C210 + 23 C211 + 60 C212 + 30 C213 + 110 C214 + 32 C215
   + C216 + 23 C217 + 60 C218 + 30 C219 + 110 C220 + 32 C221 + C222
   + 23 C223 + 60 C224 + 30 C225 + 110 C226 + 32 C227 + C228 + 23 C229
   + 60 C230 + 30 C231 + 110 C232 + 32 C233 + C234 + 23 C235 + 60 C236
   + 30 C237 + 110 C238 + 32 C239 + C240 + 23 C241 + 60 C242 + 30 C243
   + 110 C244 + 32 C245 + C246 + 23 C247 + 60 C248 + 30 C249 + 110 C250
   + 32 C251 + C252 + 23 C253 + 60 C254 + 30 C255 + 110 C256 + 32 C257
   + C258 + 23 C259 + 60 C260 + 30 C261 + 110 C262 + 32 C263 + C264
   + 23 C265 + 60 C266 + 30 C267 + 110 C268 + 32 C269 + C270 + 23 C271
   + 60 C272 + 30 C273 + 110 C274 + 32 C275 + C276 + 23 C277 + 60 C278
   + 30 C279 + 110 C280 + 32 C281 + C282 + 23 C283 + 60 C284 + 30 C285
   + 110 C286 + 32 C287 + C288 + 23 C289 + 60 C290 + 30 C291 + 110 C292
   + 32 C293 + C294 + 23 C295 + 60 C296 + 30 C297 + 110 C298 + 32 C299
   + C300 + 23 C301 + 60 C302 + 30 C303 + 110 C304 + 32 C305 + C306
   + 23 C307 + 60 C308 + 30 C309 + 110 C310 + 32 C311 + C312 + 23 C313
   + 60 C314 + 30 C315 + 110 C316 + 32 C317 + C318 + 23 C319 + 60 C320
   + 30 C321 + 110 C322 + 32 C323 + C324 + 23 C325 + 60 C326 + 30 C327
   + 110 C328 + 32 C329 + C330 + 23 C331 + 60 C332 + 30 C333 + 110 C334
   + 32 C335 + C336 + C337 + C338 + C339 + C340 + C341 + C342 + C343 + C344
   + C345 + C346 + C347 + C348 + C349 + C350 + C351 + C352 + C353 + C354
   + C355 + C356 + C357 + C358 + C359 + C360 + C361 + C362 + C363 + C364
   + C365 + C366 + C367 + C368 + C369 + C370 + C371 + C372 + C373 + C374
   + C375 + C376 + C377 + C378 + C379 + C380 + C381 + C382 + C383
Subject To
 R0: - C0 + C48 + C49 + C50 + C51 + C52 + C53 + C336 = 20531
 R1: - C1 + C54 + C55 + C56 + C57 + C58 + C59 + C337 = 20809
 R2: - C2 + C60 + C61 + C62 + C63 + C64 + C65 + C338 = 21822
 R3: - C3 + C66 + C67 + C68 + C69 + C70 + C71 + C339 = 24749
 R4: - C4 + C72 + C73 + C74 + C75 + C76 + C77 + C340 = 26704
 R5: - C5 + C78 + C79 + C80 + C81 + C82 + C83 + C341 = 28689
 R6: - C6 + C84 + C85 + C86 + C87 + C88 + C89 + C342 = 29931
 R7: - C7 + C90 + C91 + C92 + C93 + C94 + C95 + C343 = 30380
 R8: - C8 + C96 + C97 + C98 + C99 + C100 + C101 + C344 = 28880
 R9: - C9 + C102 + C103 + C104 + C105 + C106 + C107 + C345 = 27166
 R10: - C10 + C108 + C109 + C110 + C111 + C112 + C113 + C346 = 25351
 R11: - C11 + C114 + C115 + C116 + C117 + C118 + C119 + C347 = 24138
 R12: - C12 + C120 + C121 + C122 + C123 + C124 + C125 + C348 = 24032
 R13: - C13 + C126 + C127 + C128 + C129 + C130 + C131 + C349 = 23878
 R14: - C14 + C132 + C133 + C134 + C135 + C136 + C137 + C350 = 24342
 R15: - C15 + C138 + C139 + C140 + C141 + C142 + C143 + C351 = 24973
 R16: - C16 + C144 + C145 + C146 + C147 + C148 + C149 + C352 = 28607
 R17: - C17 + C150 + C151 + C152 + C153 + C154 + C155 + C353 = 33486
 R18: - C18 + C156 + C157 + C158 + C159 + C160 + C161 + C354 = 38405
 R19: - C19 + C162 + C163 + C164 + C165 + C166 + C167 + C355 = 45536
 R20: - C20 + C168 + C169 + C170 + C171 + C172 + C173 + C356 = 51388
 R21: - C21 + C174 + C175 + C176 + C177 + C178 + C179 + C357 = 54793
 R22: - C22 + C180 + C181 + C182 + C183 + C184 + C185 + C358 = 56669
 R23: - C23 + C186 + C187 + C188 + C189 + C190 + C191 + C359 = 57535
 R24: - C24 + C192 + C193 + C194 + C195 + C196 + C197 + C360 = 8146
 R25: - C25 + C198 + C199 + C200 + C201 + C202 + C203 + C361 = 8000
 R26: - C26 + C204 + C205 + C206 + C207 + C208 + C209 + C362 = 7929
 R27: - C27 + C210 + C211 + C212 + C213 + C214 + C215 + C363 = 7829
 R28: - C28 + C216 + C217 + C218 + C219 + C220 + C221 + C364 = 7746
 R29: - C29 + C222 + C223 + C224 + C225 + C226 + C227 + C365 = 8923
 R30: - C30 + C228 + C229 + C230 + C231 + C232 + C233 + C366 = 8769
 R31: - C31 + C234 + C235 + C236 + C237 + C238 + C239 + C367 = 8400
 R32: - C32 + C240 + C241 + C242 + C243 + C244 + C245 + C368 = 7822
 R33: - C33 + C246 + C247 + C248 + C249 + C250 + C251 + C369 = 7351
 R34: - C34 + C252 + C253 + C254 + C255 + C256 + C257 + C370 = 6907
 R35: - C35 + C258 + C259 + C260 + C261 + C262 + C263 + C371 = 6672
 R36: - C36 + C264 + C265 + C266 + C267 + C268 + C269 + C372 = 6466
 R37: - C37 + C270 + C271 + C272 + C273 + C274 + C275 + C373 = 6256
 R38: - C38 + C276 + C277 + C278 + C279 + C280 + C281 + C374 = 6242
 R39: - C39 + C282 + C283 + C284 + C285 + C286 + C287 + C375 = 6322
 R40: - C40 + C288 + C289 + C290 + C291 + C292 + C293 + C376 = 6632
 R41: - C41 + C294 + C295 + C296 + C297 + C298 + C299 + C377 = 6911
 R42: - C42 + C300 + C301 + C302 + C303 + C304 + C305 + C378 = 7352
 R43: - C43 + C306 + C307 + C308 + C309 + C310 + C311 + C379 = 7988
 R44: - C44 + C312 + C313 + C314 + C315 + C316 + C317 + C380 = 8343
 R45: - C45 + C318 + C319 + C320 + C321 + C322 + C323 + C381 = 8527
 R46: - C46 + C324 + C325 + C326 + C327 + C328 + C329 + C382 = 8648
 R47: - C47 + C330 + C331 + C332 + C333 + C334 + C335 + C383 = 8752
 R48: - C0 + C48 + C49 + C50 + C51 + C52 + C53 + C336 = 20531
 R49: - C1 + C54 + C55 + C56 + C57 + C58 + C59 + C337 = 20809
 R50: - C2 + C60 + C61 + C62 + C63 + C64 + C65 + C338 = 21822
 R51: - C3 + C66 + C67 + C68 + C69 + C70 + C71 + C339 = 24749
 R52: - C4 + C72 + C73 + C74 + C75 + C76 + C77 + C340 = 26704
 R53: - C5 + C78 + C79 + C80 + C81 + C82 + C83 + C341 = 28689
 R54: - C6 + C84 + C85 + C86 + C87 + C88 + C89 + C342 = 29931
 R55: - C7 + C90 + C91 + C92 + C93 + C94 + C95 + C343 = 30380
 R56: - C8 + C96 + C97 + C98 + C99 + C100 + C101 + C344 = 28880
 R57: - C9 + C102 + C103 + C104 + C105 + C106 + C107 + C345 = 27166
 R58: - C10 + C108 + C109 + C110 + C111 + C112 + C113 + C346 = 25351
 R59: - C11 + C114 + C115 + C116 + C117 + C118 + C119 + C347 = 24138
 R60: - C12 + C120 + C121 + C122 + C123 + C124 + C125 + C348 = 24032
 R61: - C13 + C126 + C127 + C128 + C129 + C130 + C131 + C349 = 23878
 R62: - C14 + C132 + C133 + C134 + C135 + C136 + C137 + C350 = 24342
 R63: - C15 + C138 + C139 + C140 + C141 + C142 + C143 + C351 = 24973
 R64: - C16 + C144 + C145 + C146 + C147 + C148 + C149 + C352 = 28607
 R65: - C17 + C150 + C151 + C152 + C153 + C154 + C155 + C353 = 33486
 R66: - C18 + C156 + C157 + C158 + C159 + C160 + C161 + C354 = 38405
 R67: - C19 + C162 + C163 + C164 + C165 + C166 + C167 + C355 = 45536
 R68: - C20 + C168 + C169 + C170 + C171 + C172 + C173 + C356 = 51388
 R69: - C21 + C174 + C175 + C176 + C177 + C178 + C179 + C357 = 54793
 R70: - C22 + C180 + C181 + C182 + C183 + C184 + C185 + C358 = 56669
 R71: - C23 + C186 + C187 + C188 + C189 + C190 + C191 + C359 = 57535
 R72: - C24 + C192 + C193 + C194 + C195 + C196 + C197 + C360 = 8146
 R73: - C25 + C198 + C199 + C200 + C201 + C202 + C203 + C361 = 8000
 R74: - C26 + C204 + C205 + C206 + C207 + C208 + C209 + C362 = 7929
 R75: - C27 + C210 + C211 + C212 + C213 + C214 + C215 + C363 = 7829
 R76: - C28 + C216 + C217 + C218 + C219 + C220 + C221 + C364 = 7746
 R77: - C29 + C222 + C223 + C224 + C225 + C226 + C227 + C365 = 8923
 R78: - C30 + C228 + C229 + C230 + C231 + C232 + C233 + C366 = 8769
 R79: - C31 + C234 + C235 + C236 + C237 + C238 + C239 + C367 = 8400
 R80: - C32 + C240 + C241 + C242 + C243 + C244 + C245 + C368 = 7822
 R81: - C33 + C246 + C247 + C248 + C249 + C250 + C251 + C369 = 7351
 R82: - C34 + C252 + C253 + C254 + C255 + C256 + C257 + C370 = 6907
 R83: - C35 + C258 + C259 + C260 + C261 + C262 + C263 + C371 = 6672
 R84: - C36 + C264 + C265 + C266 + C267 + C268 + C269 + C372 = 6466
 R85: - C37 + C270 + C271 + C272 + C273 + C274 + C275 + C373 = 6256
 R86: - C38 + C276 + C277 + C278 + C279 + C280 + C281 + C374 = 6242
 R87: - C39 + C282 + C283 + C284 + C285 + C286 + C287 + C375 = 6322
 R88: - C40 + C288 + C289 + C290 + C291 + C292 + C293 + C376 = 6632
 R89: - C41 + C294 + C295 + C296 + C297 + C298 + C299 + C377 = 6911
 R90: - C42 + C300 + C301 + C302 + C303 + C304 + C305 + C378 = 7352
 R91: - C43 + C306 + C307 + C308 + C309 + C310 + C311 + C379 = 7988
 R92: - C44 + C312 + C313 + C314 + C315 + C316 + C317 + C380 = 8343
 R93: - C45 + C318 + C319 + C320 + C321 + C322 + C323 + C381 = 8527
 R94: - C46 + C324 + C325 + C326 + C327 + C328 + C329 + C382 = 8648
 R95: - C47 + C330 + C331 + C332 + C333 + C334 + C335 + C383 = 8752
Bounds
 C0 <= 1000
 C1 <= 1000
 C2 <= 1000
 C3 <= 1000
 C4 <= 1000
 C5 <= 1000
 C6 <= 1000
 C7 <= 1000
 C8 <= 1000
 C9 <= 1000
 C10 <= 1000
 C11 <= 1000
 C12 <= 1000
 C13 <= 1000
 C14 <= 1000
 C15 <= 1000
 C16 <= 1000
 C17 <= 1000
 C18 <= 1000
 C19 <= 1000
 C20 <= 1000
 C21 <= 1000
 C22 <= 1000
 C23 <= 1000
 C24 <= 1000
 C25 <= 1000
 C26 <= 1000
 C27 <= 1000
 C28 <= 1000
 C29 <= 1000
 C30 <= 1000
 C31 <= 1000
 C32 <= 1000
 C33 <= 1000
 C34 <= 1000
 C35 <= 1000
 C36 <= 1000
 C37 <= 1000
 C38 <= 1000
 C39 <= 1000
 C40 <= 1000
 C41 <= 1000
 C42 <= 1000
 C43 <= 1000
 C44 <= 1000
 C45 <= 1000
 C46 <= 1000
 C47 <= 1000
 C48 <= 7754
 C49 <= 21205
 C50 <= 31745
 C51 <= 25293
 C52 <= 4356
 C53 <= 9516
 C54 <= 7754
 C55 <= 21205
 C56 <= 31745
 C57 <= 25293
 C58 <= 4356
 C59 <= 9516
 C60 <= 7754
 C61 <= 21205
 C62 <= 31745
 C63 <= 25293
 C64 <= 4356
 C65 <= 9516
 C66 <= 7754
 C67 <= 21205
 C68 <= 31745
 C69 <= 25293
 C70 <= 4356
 C71 <= 9516
 C72 <= 7754
 C73 <= 21205
 C74 <= 31745
 C75 <= 25293
 C76 <= 4356
 C77 <= 9516
 C78 <= 7754
 C79 <= 21205
 C80 <= 31745
 C81 <= 25293
 C82 <= 4356
 C83 <= 9516
 C84 <= 7754
 C85 <= 21205
 C86 <= 31745
 C87 <= 25293
 C88 <= 4356
 C89 <= 9516
 C90 <= 7754
 C91 <= 21205
 C92 <= 31745
 C93 <= 25293
 C94 <= 4356
 C95 <= 9516
 C96 <= 7754
 C97 <= 21205
 C98 <= 31745
 C99 <= 25293
 C100 <= 4356
 C101 <= 9516
 C102 <= 7754
 C103 <= 21205
 C104 <= 31745
 C105 <= 25293
 C106 <= 4356
 C107 <= 9516
 C108 <= 7754
 C109 <= 21205
 C110 <= 31745
 C111 <= 25293
 C112 <= 4356
 C113 <= 9516
 C114 <= 7754
 C115 <= 21205
 C116 <= 31745
 C117 <= 25293
 C118 <= 4356
 C119 <= 9516
 C120 <= 7754
 C121 <= 21205
 C122 <= 31745
 C123 <= 25293
 C124 <= 4356
 C125 <= 9516
 C126 <= 7754
 C127 <= 21205
 C128 <= 31745
 C129 <= 25293
 C130 <= 4356
 C131 <= 9516
 C132 <= 7754
 C133 <= 21205
 C134 <= 31745
 C135 <= 25293
 C136 <= 4356
 C137 <= 9516
 C138 <= 7754
 C139 <= 21205
 C140 <= 31745
 C141 <= 25293
 C142 <= 4356
 C143 <= 9516
 C144 <= 7754
 C145 <= 21205
 C146 <= 31745
 C147 <= 25293
 C148 <= 4356
 C149 <= 9516
 C150 <= 7754
 C151 <= 21205
 C152 <= 31745
 C153 <= 25293
 C154 <= 4356
 C155 <= 9516
 C156 <= 7754
 C157 <= 21205
 C158 <= 31745
 C159 <= 25293
 C160 <= 4356
 C161 <= 9516
 C162 <= 7754
 C163 <= 21205
 C164 <= 31745
 C165 <= 25293
 C166 <= 4356
 C167 <= 9516
 C168 <= 7754
 C169 <= 21205
 C170 <= 31745
 C171 <= 25293
 C172 <= 4356
 C173 <= 9516
 C174 <= 7754
 C175 <= 21205
 C176 <= 31745
 C177 <= 25293
 C178 <= 4356
 C179 <= 9516
 C180 <= 7754
 C181 <= 21205
 C182 <= 31745
 C183 <= 25293
 C184 <= 4356
 C185 <= 9516
 C186 <= 7754
 C187 <= 21205
 C188 <= 31745
 C189 <= 25293
 C190 <= 4356
 C191 <= 9516
 C192 <= 708
 C193 <= 534
 C194 <= 6649
 C195 <= 470
 C196 <= 333
 C197 <= 5931
 C198 <= 708
 C199 <= 534
 C200 <= 6649
 C201 <= 470
 C202 <= 333
 C203 <= 5931
 C204 <= 708
 C205 <= 534
 C206 <= 6649
 C207 <= 470
 C208 <= 333
 C209 <= 5931
 C210 <= 708
 C211 <= 534
 C212 <= 6649
 C213 <= 470
 C214 <= 333
 C215 <= 5931
 C216 <= 708
 C217 <= 534
 C218 <= 6649
 C219 <= 470
 C220 <= 333
 C221 <= 5931
 C222 <= 708
 C223 <= 534
 C224 <= 6649
 C225 <= 470
 C226 <= 333
 C227 <= 5931
 C228 <= 708
 C229 <= 534
 C230 <= 6649
 C231 <= 470
 C232 <= 333
 C233 <= 5931
 C234 <= 708
 C235 <= 534
 C236 <= 6649
 C237 <= 470
 C238 <= 333
 C239 <= 5931
 C240 <= 708
 C241 <= 534
 C242 <= 6649
 C243 <= 470
 C244 <= 333
 C245 <= 5931
 C246 <= 708
 C247 <= 534
 C248 <= 6649
 C249 <= 470
 C250 <= 333
 C251 <= 5931
 C252 <= 708
 C253 <= 534
 C254 <= 6649
 C255 <= 470
 C256 <= 333
 C257 <= 5931
 C258 <= 708
 C259 <= 534
 C260 <= 6649
 C261 <= 470
 C262 <= 333
 C263 <= 5931
 C264 <= 708
 C265 <= 534
 C266 <= 6649
 C267 <= 470
 C268 <= 333
 C269 <= 5931
 C270 <= 708
 C271 <= 534
 C272 <= 6649
 C273 <= 470
 C274 <= 333
 C275 <= 5931
 C276 <= 708
 C277 <= 534
 C278 <= 6649
 C279 <= 470
 C280 <= 333
 C281 <= 5931
 C282 <= 708
 C283 <= 534
 C284 <= 6649
 C285 <= 470
 C286 <= 333
 C287 <= 5931
 C288 <= 708
 C289 <= 534
 C290 <= 6649
 C291 <= 470
 C292 <= 333
 C293 <= 5931
 C294 <= 708
 C295 <= 534
 C296 <= 6649
 C297 <= 470
 C298 <= 333
 C299 <= 5931
 C300 <= 708
 C301 <= 534
 C302 <= 6649
 C303 <= 470
 C304 <= 333
 C305 <= 5931
 C306 <= 708
 C307 <= 534
 C308 <= 6649
 C309 <= 470
 C310 <= 333
 C311 <= 5931
 C312 <= 708
 C313 <= 534
 C314 <= 6649
 C315 <= 470
 C316 <= 333
 C317 <= 5931
 C318 <= 708
 C319 <= 534
 C320 <= 6649
 C321 <= 470
 C322 <= 333
 C323 <= 5931
 C324 <= 708
 C325 <= 534
 C326 <= 6649
 C327 <= 470
 C328 <= 333
 C329 <= 5931
 C330 <= 708
 C331 <= 534
 C332 <= 6649
 C333 <= 470
 C334 <= 333
 C335 <= 5931
 C336 <= 1000
 C337 <= 1000
 C338 <= 1000
 C339 <= 1000
 C340 <= 1000
 C341 <= 1000
 C342 <= 1000
 C343 <= 1000
 C344 <= 1000
 C345 <= 1000
 C346 <= 1000
 C347 <= 1000
 C348 <= 1000
 C349 <= 1000
 C350 <= 1000
 C351 <= 1000
 C352 <= 1000
 C353 <= 1000
 C354 <= 1000
 C355 <= 1000
 C356 <= 1000
 C357 <= 1000
 C358 <= 1000
 C359 <= 1000
 C360 <= 1000
 C361 <= 1000
 C362 <= 1000
 C363 <= 1000
 C364 <= 1000
 C365 <= 1000
 C366 <= 1000
 C367 <= 1000
 C368 <= 1000
 C369 <= 1000
 C370 <= 1000
 C371 <= 1000
 C372 <= 1000
 C373 <= 1000
 C374 <= 1000
 C375 <= 1000
 C376 <= 1000
 C377 <= 1000
 C378 <= 1000
 C379 <= 1000
 C380 <= 1000
 C381 <= 1000
 C382 <= 1000
 C383 <= 1000
End
